
Gurobi 10.0.1 (win64) logging started Sun Oct  8 10:18:39 2023

Set parameter LogFile to value "./results//log/FMS_11_deadline_heurTrue.log"
Gurobi Optimizer version 10.0.1 build v10.0.1rc0 (win64)

CPU model: AMD Ryzen 7 3700X 8-Core Processor, instruction set [SSE2|AVX|AVX2]
Thread count: 8 physical cores, 16 logical processors, using up to 16 threads

Optimize a model with 300 rows, 303 columns and 1118 nonzeros
Model fingerprint: 0xfde88b14
Model has 1 quadratic constraint
Variable types: 0 continuous, 303 integer (269 binary)
Coefficient statistics:
  Matrix range     [1e+00, 1e+07]
  QMatrix range    [1e+00, 1e+00]
  QLMatrix range   [1e+00, 4e+02]
  Objective range  [1e+00, 1e+00]
  Bounds range     [1e+00, 1e+00]
  RHS range        [1e+00, 3e+07]

Warning: Completing partial solution with 273 unfixed non-continuous variables out of 303
User MIP start did not produce a new incumbent solution
User MIP start violates constraint initial_start_time_job0_stage0_machine2_constraint by 420.000000000

Presolve removed 58 rows and 175 columns
Presolve time: 0.01s
Presolved: 255 rows, 139 columns, 1080 nonzeros
Variable types: 0 continuous, 139 integer (94 binary)
Found heuristic solution: objective 2.000094e+07

Root relaxation: objective 0.000000e+00, 44 iterations, 0.00 seconds (0.00 work units)
Another try with MIP start

    Nodes    |    Current Node    |     Objective Bounds      |     Work
 Expl Unexpl |  Obj  Depth IntInf | Incumbent    BestBd   Gap | It/Node Time

     0     0    0.00000    0   14 2.0001e+07    0.00000   100%     -    0s
H    0     0                    5667.0000000    0.00000   100%     -    0s
H    0     0                    5666.0000000    0.00000   100%     -    0s
H    0     0                    4601.0000000    0.00000   100%     -    0s
H    0     0                    4424.0000000    0.00000   100%     -    0s
     0     0    0.00000    0   29 4424.00000    0.00000   100%     -    0s
H    0     0                    4412.0000000    0.00000   100%     -    0s
H    0     0                    3968.0000000    0.00000   100%     -    0s
     0     0    0.00000    0   25 3968.00000    0.00000   100%     -    0s
     0     0    0.00000    0   22 3968.00000    0.00000   100%     -    0s
     0     0  273.21775    0   33 3968.00000  273.21775  93.1%     -    0s
     0     0 1340.67918    0   35 3968.00000 1340.67918  66.2%     -    0s
     0     0 1609.91812    0   44 3968.00000 1609.91812  59.4%     -    0s
     0     0 1609.91812    0   45 3968.00000 1609.91812  59.4%     -    0s
     0     0 1625.20508    0   42 3968.00000 1625.20508  59.0%     -    0s
     0     0 1625.41274    0   43 3968.00000 1625.41274  59.0%     -    0s
     0     0 1627.29992    0   40 3968.00000 1627.29992  59.0%     -    0s
     0     0 1627.30666    0   41 3968.00000 1627.30666  59.0%     -    0s
     0     0 1627.30666    0   43 3968.00000 1627.30666  59.0%     -    0s
     0     0 1627.30666    0   35 3968.00000 1627.30666  59.0%     -    0s
H    0     0                    3967.0000000 1627.30666  59.0%     -    0s
H    0     0                    3882.0000000 1628.29239  58.1%     -    0s
     0     2 1628.29239    0   32 3882.00000 1628.29239  58.1%     -    0s
H   31    30                    3485.0000000 1635.96756  53.1%  13.9    0s
H   86    68                    3479.0000000 1635.96756  53.0%  10.3    0s
H  128    88                    3414.0000000 1635.96756  52.1%  10.1    0s
H  283   154                    3398.0000000 1635.96756  51.9%   7.7    0s
H  688   309                    3339.0000000 1671.47352  49.9%   6.2    0s
* 4023  1191              25    3336.0000000 1836.40357  45.0%   4.7    0s
H 5121  1276                    3334.0000000 1836.40357  44.9%   4.5    0s
H 5123  1214                    3333.0000000 1836.40357  44.9%   4.5    0s
H 5123  1153                    3331.0000000 1836.40357  44.9%   4.5    0s
H 5127  1098                    3330.0000000 1836.40357  44.9%   4.5    0s
H 5129  1044                    3329.0000000 1836.40357  44.8%   4.5    0s
H 5129   992                    3327.0000000 1836.40357  44.8%   4.5    0s
H 5135   946                    3326.0000000 1836.40357  44.8%   4.5    0s
H 5140   901                    3325.0000000 1836.40357  44.8%   4.5    1s
H 5140   856                    3323.0000000 1836.40357  44.7%   4.5    1s
H 5146   816                    3322.0000000 1836.40357  44.7%   4.5    1s
H 5148   776                    3308.0000000 1836.40357  44.5%   4.5    1s
H 5389   864                    3271.0000000 1836.40357  43.9%   1.4    1s
H 5404   821                    3202.0000000 1836.40357  42.6%   1.5    1s

Cutting planes:
  Learned: 4
  Gomory: 6
  Cover: 1
  Implied bound: 2
  MIR: 1
  Flow cover: 4
  Relax-and-lift: 1

Explored 20118 nodes (118613 simplex iterations) in 4.64 seconds (0.89 work units)
Thread count was 16 (of 16 available processors)

Solution count 10: 3202 3271 3308 ... 3330

Optimal solution found (tolerance 1.00e-04)
Best objective 3.202000000000e+03, best bound 3.202000000000e+03, gap 0.0000%
Warning: constraint name "precedence between 0,0 to 0,1 if x_[0,0,0,1,3]=0, i.e. 0,1 before 0,0" has a space
Warning: constraint name "precedence between 0,0 to 0,1 if x_[0,0,0,1,3]=0, i.e. 0,1 before 0,0" has a space
Warning: default constraint names used to write mps file
